sifdecoder -A pc64.lnx.gfo -st   HS53

 Problem name: HS53

 Double precision version will be formed

 The objective function uses 1 nonlinear group
 
 There are 3 linear equality constraints
 
 There are 5 variables bounded from below and above 
 
 
 File successfully decoded
 CUTEST: tools (double precision version) compiled successfully
 CUTEst: ipopt (double precision version) compiled successfully

******************************************************************************
This program contains Ipopt, a library for large-scale nonlinear optimization.
 Ipopt is released as open source code under the Eclipse Public License (EPL).
         For more information visit http://projects.coin-or.org/Ipopt
******************************************************************************

This is Ipopt version trunk, running with linear solver ma57.

Number of nonzeros in equality constraint Jacobian...:        7
Number of nonzeros in inequality constraint Jacobian.:        0
Number of nonzeros in Lagrangian Hessian.............:        7

Total number of variables............................:        5
                     variables with only lower bounds:        0
                variables with lower and upper bounds:        5
                     variables with only upper bounds:        0
Total number of equality constraints.................:        3
Total number of inequality constraints...............:        0
        inequality constraints with only lower bounds:        0
   inequality constraints with lower and upper bounds:        0
        inequality constraints with only upper bounds:        0

iter    objective    inf_pr   inf_du lg(mu)  ||d||  lg(rg) alpha_du alpha_pr  ls
   0  6.0000000e+00 8.00e+00 2.77e+00  -1.0 0.00e+00    -  0.00e+00 0.00e+00   0
   1  4.0959707e+00 2.22e-16 1.46e-01  -1.0 2.75e+00    -  7.43e-01 1.00e+00f  1
   2  4.0930262e+00 1.11e-16 2.91e-16  -1.0 3.64e-02    -  1.00e+00 1.00e+00f  1
   3  4.0930233e+00 1.11e-16 4.25e-16  -2.5 1.16e-03    -  1.00e+00 1.00e+00f  1
   4  4.0930233e+00 1.11e-16 4.73e-16  -3.8 1.29e-05    -  1.00e+00 1.00e+00h  1
   5  4.0930233e+00 1.11e-16 7.21e-16  -5.7 6.58e-07    -  1.00e+00 1.00e+00h  1
   6  4.0930233e+00 1.11e-16 5.42e-16  -8.6 8.15e-09    -  1.00e+00 1.00e+00h  1

Number of Iterations....: 6

                                   (scaled)                 (unscaled)
Objective...............:   4.0930232558139528e+00    4.0930232558139528e+00
Dual infeasibility......:   5.4210484495145566e-16    5.4210484495145566e-16
Constraint violation....:   1.1102230246251565e-16    1.1102230246251565e-16
Complementarity.........:   2.5059051620993588e-09    2.5059051620993588e-09
Overall NLP error.......:   2.5059051620993588e-09    2.5059051620993588e-09


Number of objective function evaluations             = 7
Number of objective gradient evaluations             = 7
Number of equality constraint evaluations            = 7
Number of inequality constraint evaluations          = 0
Number of equality constraint Jacobian evaluations   = 7
Number of inequality constraint Jacobian evaluations = 0
Number of Lagrangian Hessian evaluations             = 6
Total CPU secs in IPOPT (w/o function evaluations)   =      0.021
Total CPU secs in NLP function evaluations           =      0.001

EXIT: Optimal Solution Found.

************************ CUTEst statistics ************************


 Package used            :  IPOPT
 Problem                 :  HS53      
 # variables             =               5
 # constraints           =               3
 # objective functions   =        0.1500000E+02
 # objective gradients   =        0.8000000E+01
 # objective Hessians    =        0.7000000E+01
 # Hessian-vector prdct  =        0.0000000E+00
 # constraints functions =        0.1600000E+02
 # constraints gradients =        0.9000000E+01
 # constraints Hessians  =        0.7000000E+01
 Exit code               =               0
 Final f                 =        4.0930232558139528D+00
 Bounds feasibility      =        0.0000000000000000D+00
 Set up time             =            0.00 seconds
 Solve time              =            0.07 seconds


******************************************************************

